c User generated cnf file
p cnf 9 33
4 -6 4 0 
2 9 -8 0 
3 -4 3 0 
6 -9 1 0 
2 3 -5 0 
3 -8 4 0 
9 -1 5 0 
1 -8 3 0 
5 -2 2 0 
9 -2 6 0 
8 -2 8 0 
6 -2 5 0 
3 -2 6 0 
1 8 -4 0 
1 -5 3 0 
1 6 -1 0 
3 1 -5 0 
4 -5 8 0 
6 4 -8 0 
2 2 -9 0 
4 6 -2 0 
2 8 -7 0 
4 1 -8 0 
6 7 -9 0 
1 9 -7 0 
6 -1 1 0 
9 1 -1 0 
6 8 -2 0 
9 -2 7 0 
7 5 -3 0 
6 -2 4 0 
2 -8 2 0 
9 -6 9 0 
